c width = 2, time = 0.000178
s td 58 3 60
b 1 16 21 49
b 2 21 16 17
b 3 21 17 18
b 4 21 18 19
b 5 21 19 20
b 6 49 21 22
b 7 49 22 23
b 8 49 23 25
b 9 49 25 26
b 10 49 26 27
b 11 49 27 28
b 12 49 28 29
b 13 49 29 30
b 14 49 30 31
b 15 49 31 32
b 16 49 32 33
b 17 49 33 34
b 18 49 21 36
b 19 49 36 37
b 20 49 37 38
b 21 49 38 39
b 22 49 39 40
b 23 49 40 41
b 24 49 41 42
b 25 49 42 43
b 26 49 43 44
b 27 49 44 45
b 28 49 45 47
b 29 49 47 48
b 30 49 16 15
b 31 49 15 14
b 32 49 14 12
b 33 49 12 11
b 34 49 11 10
b 35 49 10 9
b 36 49 9 8
b 37 49 8 7
b 38 49 7 6
b 39 49 6 5
b 40 49 5 4
b 41 49 4 3
b 42 49 3 60
b 43 49 60 59
b 44 49 59 54
b 45 49 54 53
b 46 49 53 52
b 47 49 52 51
b 48 49 51 50
b 49 5 55
b 50 55 56
b 51 59 58
b 52 58 57
b 53 57 46
b 54 46 35
b 55 35 24
b 56 24 13
b 57 13 2
b 58 2 1
1 2
2 3
3 4
4 5
1 6
6 7
7 8
8 9
9 10
10 11
11 12
12 13
13 14
14 15
15 16
16 17
1 18
18 19
19 20
20 21
21 22
22 23
23 24
24 25
25 26
26 27
27 28
28 29
1 30
30 31
31 32
32 33
33 34
34 35
35 36
36 37
37 38
38 39
39 40
40 41
41 42
42 43
43 44
44 45
45 46
46 47
47 48
39 49
49 50
43 51
51 52
52 53
53 54
54 55
55 56
56 57
57 58
